
;this file is automatically generated: Tue Feb 23 13:38:01 CST 2021

;declarations generated

(declare-fun oclExcludes ( Int Int) Bool)
(declare-fun class16_Class16IntAttr2 ( Int) Int)
(declare-fun Cardinality ( Int) Int)
(declare-fun obj_70e7b85f_5476_44de_b6d7_dbff9c68a43c ( Int) Int)
(declare-fun type_6d16f266_8c32_4d97_be88_09194b37e9a7_Class41 ( Int) Bool)
(declare-fun type_6d16f266_8c32_4d97_be88_09194b37e9a7_Class42 ( Int) Bool)
(declare-fun type_6d16f266_8c32_4d97_be88_09194b37e9a7_Class43 ( Int) Bool)
(declare-fun type_6d16f266_8c32_4d97_be88_09194b37e9a7_Class44 ( Int) Bool)
(declare-fun type_6d16f266_8c32_4d97_be88_09194b37e9a7_Class45 ( Int) Bool)
(declare-fun type_6d16f266_8c32_4d97_be88_09194b37e9a7_Class40 ( Int) Bool)
(declare-fun type_6d16f266_8c32_4d97_be88_09194b37e9a7_Class30 ( Int) Bool)
(declare-fun type_6d16f266_8c32_4d97_be88_09194b37e9a7_Class31 ( Int) Bool)
(declare-fun type_6d16f266_8c32_4d97_be88_09194b37e9a7_Class32 ( Int) Bool)
(declare-fun type_6d16f266_8c32_4d97_be88_09194b37e9a7_Class33 ( Int) Bool)
(declare-fun type_6d16f266_8c32_4d97_be88_09194b37e9a7_Class34 ( Int) Bool)
(declare-fun type_6d16f266_8c32_4d97_be88_09194b37e9a7_Class35 ( Int) Bool)
(declare-fun type_6d16f266_8c32_4d97_be88_09194b37e9a7_Class36 ( Int) Bool)
(declare-fun type_6d16f266_8c32_4d97_be88_09194b37e9a7_Class37 ( Int) Bool)
(declare-fun oclSelect ( Int Bool) Int)
(declare-fun type_6d16f266_8c32_4d97_be88_09194b37e9a7_Class38 ( Int) Bool)
(declare-fun type_6d16f266_8c32_4d97_be88_09194b37e9a7_Class39 ( Int) Bool)
(declare-fun type_6d16f266_8c32_4d97_be88_09194b37e9a7_Class20 ( Int) Bool)
(declare-fun type_6d16f266_8c32_4d97_be88_09194b37e9a7_Class21 ( Int) Bool)
(declare-fun type_6d16f266_8c32_4d97_be88_09194b37e9a7_Class22 ( Int) Bool)
(declare-fun type_6d16f266_8c32_4d97_be88_09194b37e9a7_Class23 ( Int) Bool)
(declare-fun type_6d16f266_8c32_4d97_be88_09194b37e9a7_Class24 ( Int) Bool)
(declare-fun type_6d16f266_8c32_4d97_be88_09194b37e9a7_Class25 ( Int) Bool)
(declare-fun type_6d16f266_8c32_4d97_be88_09194b37e9a7_Class26 ( Int) Bool)
(declare-fun type_6d16f266_8c32_4d97_be88_09194b37e9a7_Class27 ( Int) Bool)
(declare-fun type_6d16f266_8c32_4d97_be88_09194b37e9a7_Class28 ( Int) Bool)
(declare-fun type_6d16f266_8c32_4d97_be88_09194b37e9a7_Class29 ( Int) Bool)
(declare-fun type_6d16f266_8c32_4d97_be88_09194b37e9a7_Class10 ( Int) Bool)
(declare-fun type_6d16f266_8c32_4d97_be88_09194b37e9a7_Class11 ( Int) Bool)
(declare-fun type_6d16f266_8c32_4d97_be88_09194b37e9a7_Class12 ( Int) Bool)
(declare-fun type_6d16f266_8c32_4d97_be88_09194b37e9a7_Class13 ( Int) Bool)
(declare-fun type_6d16f266_8c32_4d97_be88_09194b37e9a7_Class14 ( Int) Bool)
(declare-fun type_6d16f266_8c32_4d97_be88_09194b37e9a7_Class15 ( Int) Bool)
(declare-fun type_6d16f266_8c32_4d97_be88_09194b37e9a7_Class16 ( Int) Bool)
(declare-fun type_6d16f266_8c32_4d97_be88_09194b37e9a7_Class17 ( Int) Bool)
(declare-fun type_6d16f266_8c32_4d97_be88_09194b37e9a7_Class18 ( Int) Bool)
(declare-fun type_6d16f266_8c32_4d97_be88_09194b37e9a7_Class19 ( Int) Bool)
(declare-fun class16_Class16BoolAttr1 ( Int) Bool)
(declare-fun class16_Class16BoolAttr0 ( Int) Bool)
(declare-fun Enum0 ( Int) Int)
(declare-fun Enum1 ( Int) Int)
(declare-fun Enum2 ( Int) Int)
(declare-fun type_6d16f266_8c32_4d97_be88_09194b37e9a7_Class1 ( Int) Bool)
(declare-fun type_6d16f266_8c32_4d97_be88_09194b37e9a7_Class2 ( Int) Bool)
(declare-fun type_6d16f266_8c32_4d97_be88_09194b37e9a7_Class0 ( Int) Bool)
(declare-fun container_ ( Int) Int)
(declare-fun type_6d16f266_8c32_4d97_be88_09194b37e9a7_Class9 ( Int) Bool)
(declare-fun type_6d16f266_8c32_4d97_be88_09194b37e9a7_Class7 ( Int) Bool)
(declare-fun type_6d16f266_8c32_4d97_be88_09194b37e9a7_Class8 ( Int) Bool)
(declare-fun type_6d16f266_8c32_4d97_be88_09194b37e9a7_Class5 ( Int) Bool)
(declare-fun type_6d16f266_8c32_4d97_be88_09194b37e9a7_Class6 ( Int) Bool)
(declare-fun type_6d16f266_8c32_4d97_be88_09194b37e9a7_Class3 ( Int) Bool)
(declare-fun type_6d16f266_8c32_4d97_be88_09194b37e9a7_Class4 ( Int) Bool)
(declare-fun oclIncludes ( Int Int) Bool)
(declare-fun ObjAt ( Int Int) Int)

;formula(s) generated
(assert (forall ((p Int)) (=> ( type_6d16f266_8c32_4d97_be88_09194b37e9a7_Class16 p )  (and (>= ( Enum1 ( obj_70e7b85f_5476_44de_b6d7_dbff9c68a43c p )  )  0) (<= ( Enum1 ( obj_70e7b85f_5476_44de_b6d7_dbff9c68a43c p )  )  13)))))
(assert (! (and (forall ((v Int)) (=> (and (and ( type_6d16f266_8c32_4d97_be88_09194b37e9a7_Class16 v )  ( type_6d16f266_8c32_4d97_be88_09194b37e9a7_Class15 v ) ) ( type_6d16f266_8c32_4d97_be88_09194b37e9a7_Class2 v ) ) (and ( class16_Class16BoolAttr1 ( obj_70e7b85f_5476_44de_b6d7_dbff9c68a43c v )  )  (and (forall ((v Int)) (=> (and (and ( type_6d16f266_8c32_4d97_be88_09194b37e9a7_Class16 v )  ( type_6d16f266_8c32_4d97_be88_09194b37e9a7_Class15 v ) ) ( type_6d16f266_8c32_4d97_be88_09194b37e9a7_Class2 v ) ) (not (= ( Enum1 ( obj_70e7b85f_5476_44de_b6d7_dbff9c68a43c v )  )  2) ))) (forall ((v Int)) (=> (and (and ( type_6d16f266_8c32_4d97_be88_09194b37e9a7_Class16 v )  ( type_6d16f266_8c32_4d97_be88_09194b37e9a7_Class15 v ) ) ( type_6d16f266_8c32_4d97_be88_09194b37e9a7_Class2 v ) ) (not (= ( class16_Class16IntAttr2 ( obj_70e7b85f_5476_44de_b6d7_dbff9c68a43c v )  )  19) ))))))) (forall ((v Int)) (=> (and (and ( type_6d16f266_8c32_4d97_be88_09194b37e9a7_Class16 v )  ( type_6d16f266_8c32_4d97_be88_09194b37e9a7_Class15 v ) ) ( type_6d16f266_8c32_4d97_be88_09194b37e9a7_Class2 v ) ) ( class16_Class16BoolAttr0 ( obj_70e7b85f_5476_44de_b6d7_dbff9c68a43c v )  ) ))):named l0))
(assert (! (exists ((o Int)) (and (and (and ( type_6d16f266_8c32_4d97_be88_09194b37e9a7_Class0 ( obj_70e7b85f_5476_44de_b6d7_dbff9c68a43c o )  )  ( type_6d16f266_8c32_4d97_be88_09194b37e9a7_Class22 ( obj_70e7b85f_5476_44de_b6d7_dbff9c68a43c o )  ) ) ( type_6d16f266_8c32_4d97_be88_09194b37e9a7_Class35 ( obj_70e7b85f_5476_44de_b6d7_dbff9c68a43c o )  ) ) ( type_6d16f266_8c32_4d97_be88_09194b37e9a7_Class2 ( obj_70e7b85f_5476_44de_b6d7_dbff9c68a43c o )  ) )):named c0))
(assert (! (exists ((o Int)) ( type_6d16f266_8c32_4d97_be88_09194b37e9a7_Class1 ( obj_70e7b85f_5476_44de_b6d7_dbff9c68a43c o )  ) ):named c1))
(assert (! (exists ((o Int)) (and (and (and (and ( type_6d16f266_8c32_4d97_be88_09194b37e9a7_Class10 ( obj_70e7b85f_5476_44de_b6d7_dbff9c68a43c o )  )  ( type_6d16f266_8c32_4d97_be88_09194b37e9a7_Class16 ( obj_70e7b85f_5476_44de_b6d7_dbff9c68a43c o )  ) ) ( type_6d16f266_8c32_4d97_be88_09194b37e9a7_Class15 ( obj_70e7b85f_5476_44de_b6d7_dbff9c68a43c o )  ) ) ( type_6d16f266_8c32_4d97_be88_09194b37e9a7_Class41 ( obj_70e7b85f_5476_44de_b6d7_dbff9c68a43c o )  ) ) ( type_6d16f266_8c32_4d97_be88_09194b37e9a7_Class2 ( obj_70e7b85f_5476_44de_b6d7_dbff9c68a43c o )  ) )):named c2))
(assert (! (exists ((o Int)) ( type_6d16f266_8c32_4d97_be88_09194b37e9a7_Class11 ( obj_70e7b85f_5476_44de_b6d7_dbff9c68a43c o )  ) ):named c3))
(assert (! (exists ((o Int)) (and (and (and (and ( type_6d16f266_8c32_4d97_be88_09194b37e9a7_Class12 ( obj_70e7b85f_5476_44de_b6d7_dbff9c68a43c o )  )  ( type_6d16f266_8c32_4d97_be88_09194b37e9a7_Class22 ( obj_70e7b85f_5476_44de_b6d7_dbff9c68a43c o )  ) ) ( type_6d16f266_8c32_4d97_be88_09194b37e9a7_Class35 ( obj_70e7b85f_5476_44de_b6d7_dbff9c68a43c o )  ) ) ( type_6d16f266_8c32_4d97_be88_09194b37e9a7_Class0 ( obj_70e7b85f_5476_44de_b6d7_dbff9c68a43c o )  ) ) ( type_6d16f266_8c32_4d97_be88_09194b37e9a7_Class2 ( obj_70e7b85f_5476_44de_b6d7_dbff9c68a43c o )  ) )):named c4))
(assert (! (exists ((o Int)) (and (and (and ( type_6d16f266_8c32_4d97_be88_09194b37e9a7_Class13 ( obj_70e7b85f_5476_44de_b6d7_dbff9c68a43c o )  )  ( type_6d16f266_8c32_4d97_be88_09194b37e9a7_Class16 ( obj_70e7b85f_5476_44de_b6d7_dbff9c68a43c o )  ) ) ( type_6d16f266_8c32_4d97_be88_09194b37e9a7_Class15 ( obj_70e7b85f_5476_44de_b6d7_dbff9c68a43c o )  ) ) ( type_6d16f266_8c32_4d97_be88_09194b37e9a7_Class2 ( obj_70e7b85f_5476_44de_b6d7_dbff9c68a43c o )  ) )):named c5))
(assert (! (exists ((o Int)) (and (and (and (and (and (and (and ( type_6d16f266_8c32_4d97_be88_09194b37e9a7_Class14 ( obj_70e7b85f_5476_44de_b6d7_dbff9c68a43c o )  )  ( type_6d16f266_8c32_4d97_be88_09194b37e9a7_Class33 ( obj_70e7b85f_5476_44de_b6d7_dbff9c68a43c o )  ) ) ( type_6d16f266_8c32_4d97_be88_09194b37e9a7_Class13 ( obj_70e7b85f_5476_44de_b6d7_dbff9c68a43c o )  ) ) ( type_6d16f266_8c32_4d97_be88_09194b37e9a7_Class16 ( obj_70e7b85f_5476_44de_b6d7_dbff9c68a43c o )  ) ) ( type_6d16f266_8c32_4d97_be88_09194b37e9a7_Class15 ( obj_70e7b85f_5476_44de_b6d7_dbff9c68a43c o )  ) ) ( type_6d16f266_8c32_4d97_be88_09194b37e9a7_Class4 ( obj_70e7b85f_5476_44de_b6d7_dbff9c68a43c o )  ) ) ( type_6d16f266_8c32_4d97_be88_09194b37e9a7_Class41 ( obj_70e7b85f_5476_44de_b6d7_dbff9c68a43c o )  ) ) ( type_6d16f266_8c32_4d97_be88_09194b37e9a7_Class2 ( obj_70e7b85f_5476_44de_b6d7_dbff9c68a43c o )  ) )):named c6))
(assert (! (exists ((o Int)) (and ( type_6d16f266_8c32_4d97_be88_09194b37e9a7_Class15 ( obj_70e7b85f_5476_44de_b6d7_dbff9c68a43c o )  )  ( type_6d16f266_8c32_4d97_be88_09194b37e9a7_Class2 ( obj_70e7b85f_5476_44de_b6d7_dbff9c68a43c o )  ) )):named c7))
(assert (! (exists ((o Int)) (and (and ( type_6d16f266_8c32_4d97_be88_09194b37e9a7_Class16 ( obj_70e7b85f_5476_44de_b6d7_dbff9c68a43c o )  )  ( type_6d16f266_8c32_4d97_be88_09194b37e9a7_Class15 ( obj_70e7b85f_5476_44de_b6d7_dbff9c68a43c o )  ) ) ( type_6d16f266_8c32_4d97_be88_09194b37e9a7_Class2 ( obj_70e7b85f_5476_44de_b6d7_dbff9c68a43c o )  ) )):named c8))
(assert (! (exists ((o Int)) (and (and (and (and ( type_6d16f266_8c32_4d97_be88_09194b37e9a7_Class17 ( obj_70e7b85f_5476_44de_b6d7_dbff9c68a43c o )  )  ( type_6d16f266_8c32_4d97_be88_09194b37e9a7_Class24 ( obj_70e7b85f_5476_44de_b6d7_dbff9c68a43c o )  ) ) ( type_6d16f266_8c32_4d97_be88_09194b37e9a7_Class26 ( obj_70e7b85f_5476_44de_b6d7_dbff9c68a43c o )  ) ) ( type_6d16f266_8c32_4d97_be88_09194b37e9a7_Class32 ( obj_70e7b85f_5476_44de_b6d7_dbff9c68a43c o )  ) ) ( type_6d16f266_8c32_4d97_be88_09194b37e9a7_Class2 ( obj_70e7b85f_5476_44de_b6d7_dbff9c68a43c o )  ) )):named c9))
(assert (! (exists ((o Int)) ( type_6d16f266_8c32_4d97_be88_09194b37e9a7_Class18 ( obj_70e7b85f_5476_44de_b6d7_dbff9c68a43c o )  ) ):named c10))
(assert (! (exists ((o Int)) ( type_6d16f266_8c32_4d97_be88_09194b37e9a7_Class19 ( obj_70e7b85f_5476_44de_b6d7_dbff9c68a43c o )  ) ):named c11))
(assert (! (exists ((o Int)) ( type_6d16f266_8c32_4d97_be88_09194b37e9a7_Class2 ( obj_70e7b85f_5476_44de_b6d7_dbff9c68a43c o )  ) ):named c12))
(assert (! (exists ((o Int)) (and (and ( type_6d16f266_8c32_4d97_be88_09194b37e9a7_Class20 ( obj_70e7b85f_5476_44de_b6d7_dbff9c68a43c o )  )  ( type_6d16f266_8c32_4d97_be88_09194b37e9a7_Class21 ( obj_70e7b85f_5476_44de_b6d7_dbff9c68a43c o )  ) ) ( type_6d16f266_8c32_4d97_be88_09194b37e9a7_Class2 ( obj_70e7b85f_5476_44de_b6d7_dbff9c68a43c o )  ) )):named c13))
(assert (! (exists ((o Int)) (and ( type_6d16f266_8c32_4d97_be88_09194b37e9a7_Class21 ( obj_70e7b85f_5476_44de_b6d7_dbff9c68a43c o )  )  ( type_6d16f266_8c32_4d97_be88_09194b37e9a7_Class2 ( obj_70e7b85f_5476_44de_b6d7_dbff9c68a43c o )  ) )):named c14))
(assert (! (exists ((o Int)) (and (and ( type_6d16f266_8c32_4d97_be88_09194b37e9a7_Class22 ( obj_70e7b85f_5476_44de_b6d7_dbff9c68a43c o )  )  ( type_6d16f266_8c32_4d97_be88_09194b37e9a7_Class35 ( obj_70e7b85f_5476_44de_b6d7_dbff9c68a43c o )  ) ) ( type_6d16f266_8c32_4d97_be88_09194b37e9a7_Class2 ( obj_70e7b85f_5476_44de_b6d7_dbff9c68a43c o )  ) )):named c15))
(assert (! (exists ((o Int)) (and (and (and (and (and (and ( type_6d16f266_8c32_4d97_be88_09194b37e9a7_Class23 ( obj_70e7b85f_5476_44de_b6d7_dbff9c68a43c o )  )  ( type_6d16f266_8c32_4d97_be88_09194b37e9a7_Class12 ( obj_70e7b85f_5476_44de_b6d7_dbff9c68a43c o )  ) ) ( type_6d16f266_8c32_4d97_be88_09194b37e9a7_Class22 ( obj_70e7b85f_5476_44de_b6d7_dbff9c68a43c o )  ) ) ( type_6d16f266_8c32_4d97_be88_09194b37e9a7_Class25 ( obj_70e7b85f_5476_44de_b6d7_dbff9c68a43c o )  ) ) ( type_6d16f266_8c32_4d97_be88_09194b37e9a7_Class35 ( obj_70e7b85f_5476_44de_b6d7_dbff9c68a43c o )  ) ) ( type_6d16f266_8c32_4d97_be88_09194b37e9a7_Class0 ( obj_70e7b85f_5476_44de_b6d7_dbff9c68a43c o )  ) ) ( type_6d16f266_8c32_4d97_be88_09194b37e9a7_Class2 ( obj_70e7b85f_5476_44de_b6d7_dbff9c68a43c o )  ) )):named c16))
(assert (! (exists ((o Int)) (and (and (and ( type_6d16f266_8c32_4d97_be88_09194b37e9a7_Class24 ( obj_70e7b85f_5476_44de_b6d7_dbff9c68a43c o )  )  ( type_6d16f266_8c32_4d97_be88_09194b37e9a7_Class26 ( obj_70e7b85f_5476_44de_b6d7_dbff9c68a43c o )  ) ) ( type_6d16f266_8c32_4d97_be88_09194b37e9a7_Class32 ( obj_70e7b85f_5476_44de_b6d7_dbff9c68a43c o )  ) ) ( type_6d16f266_8c32_4d97_be88_09194b37e9a7_Class2 ( obj_70e7b85f_5476_44de_b6d7_dbff9c68a43c o )  ) )):named c17))
(assert (! (exists ((o Int)) (and (and (and (and (and ( type_6d16f266_8c32_4d97_be88_09194b37e9a7_Class25 ( obj_70e7b85f_5476_44de_b6d7_dbff9c68a43c o )  )  ( type_6d16f266_8c32_4d97_be88_09194b37e9a7_Class12 ( obj_70e7b85f_5476_44de_b6d7_dbff9c68a43c o )  ) ) ( type_6d16f266_8c32_4d97_be88_09194b37e9a7_Class22 ( obj_70e7b85f_5476_44de_b6d7_dbff9c68a43c o )  ) ) ( type_6d16f266_8c32_4d97_be88_09194b37e9a7_Class35 ( obj_70e7b85f_5476_44de_b6d7_dbff9c68a43c o )  ) ) ( type_6d16f266_8c32_4d97_be88_09194b37e9a7_Class0 ( obj_70e7b85f_5476_44de_b6d7_dbff9c68a43c o )  ) ) ( type_6d16f266_8c32_4d97_be88_09194b37e9a7_Class2 ( obj_70e7b85f_5476_44de_b6d7_dbff9c68a43c o )  ) )):named c18))
(assert (! (exists ((o Int)) (and (and ( type_6d16f266_8c32_4d97_be88_09194b37e9a7_Class26 ( obj_70e7b85f_5476_44de_b6d7_dbff9c68a43c o )  )  ( type_6d16f266_8c32_4d97_be88_09194b37e9a7_Class32 ( obj_70e7b85f_5476_44de_b6d7_dbff9c68a43c o )  ) ) ( type_6d16f266_8c32_4d97_be88_09194b37e9a7_Class2 ( obj_70e7b85f_5476_44de_b6d7_dbff9c68a43c o )  ) )):named c19))
(assert (! (exists ((o Int)) (and ( type_6d16f266_8c32_4d97_be88_09194b37e9a7_Class27 ( obj_70e7b85f_5476_44de_b6d7_dbff9c68a43c o )  )  ( type_6d16f266_8c32_4d97_be88_09194b37e9a7_Class2 ( obj_70e7b85f_5476_44de_b6d7_dbff9c68a43c o )  ) )):named c20))
(assert (! (exists ((o Int)) ( type_6d16f266_8c32_4d97_be88_09194b37e9a7_Class28 ( obj_70e7b85f_5476_44de_b6d7_dbff9c68a43c o )  ) ):named c21))
(assert (! (exists ((o Int)) ( type_6d16f266_8c32_4d97_be88_09194b37e9a7_Class29 ( obj_70e7b85f_5476_44de_b6d7_dbff9c68a43c o )  ) ):named c22))
(assert (! (exists ((o Int)) ( type_6d16f266_8c32_4d97_be88_09194b37e9a7_Class3 ( obj_70e7b85f_5476_44de_b6d7_dbff9c68a43c o )  ) ):named c23))
(assert (! (exists ((o Int)) (and ( type_6d16f266_8c32_4d97_be88_09194b37e9a7_Class30 ( obj_70e7b85f_5476_44de_b6d7_dbff9c68a43c o )  )  ( type_6d16f266_8c32_4d97_be88_09194b37e9a7_Class2 ( obj_70e7b85f_5476_44de_b6d7_dbff9c68a43c o )  ) )):named c24))
(assert (! (exists ((o Int)) (and (and (and (and ( type_6d16f266_8c32_4d97_be88_09194b37e9a7_Class31 ( obj_70e7b85f_5476_44de_b6d7_dbff9c68a43c o )  )  ( type_6d16f266_8c32_4d97_be88_09194b37e9a7_Class16 ( obj_70e7b85f_5476_44de_b6d7_dbff9c68a43c o )  ) ) ( type_6d16f266_8c32_4d97_be88_09194b37e9a7_Class15 ( obj_70e7b85f_5476_44de_b6d7_dbff9c68a43c o )  ) ) ( type_6d16f266_8c32_4d97_be88_09194b37e9a7_Class41 ( obj_70e7b85f_5476_44de_b6d7_dbff9c68a43c o )  ) ) ( type_6d16f266_8c32_4d97_be88_09194b37e9a7_Class2 ( obj_70e7b85f_5476_44de_b6d7_dbff9c68a43c o )  ) )):named c25))
(assert (! (exists ((o Int)) (and ( type_6d16f266_8c32_4d97_be88_09194b37e9a7_Class32 ( obj_70e7b85f_5476_44de_b6d7_dbff9c68a43c o )  )  ( type_6d16f266_8c32_4d97_be88_09194b37e9a7_Class2 ( obj_70e7b85f_5476_44de_b6d7_dbff9c68a43c o )  ) )):named c26))
(assert (! (exists ((o Int)) (and (and (and (and (and ( type_6d16f266_8c32_4d97_be88_09194b37e9a7_Class33 ( obj_70e7b85f_5476_44de_b6d7_dbff9c68a43c o )  )  ( type_6d16f266_8c32_4d97_be88_09194b37e9a7_Class13 ( obj_70e7b85f_5476_44de_b6d7_dbff9c68a43c o )  ) ) ( type_6d16f266_8c32_4d97_be88_09194b37e9a7_Class16 ( obj_70e7b85f_5476_44de_b6d7_dbff9c68a43c o )  ) ) ( type_6d16f266_8c32_4d97_be88_09194b37e9a7_Class15 ( obj_70e7b85f_5476_44de_b6d7_dbff9c68a43c o )  ) ) ( type_6d16f266_8c32_4d97_be88_09194b37e9a7_Class41 ( obj_70e7b85f_5476_44de_b6d7_dbff9c68a43c o )  ) ) ( type_6d16f266_8c32_4d97_be88_09194b37e9a7_Class2 ( obj_70e7b85f_5476_44de_b6d7_dbff9c68a43c o )  ) )):named c27))
(assert (! (exists ((o Int)) ( type_6d16f266_8c32_4d97_be88_09194b37e9a7_Class34 ( obj_70e7b85f_5476_44de_b6d7_dbff9c68a43c o )  ) ):named c28))
(assert (! (exists ((o Int)) (and ( type_6d16f266_8c32_4d97_be88_09194b37e9a7_Class35 ( obj_70e7b85f_5476_44de_b6d7_dbff9c68a43c o )  )  ( type_6d16f266_8c32_4d97_be88_09194b37e9a7_Class2 ( obj_70e7b85f_5476_44de_b6d7_dbff9c68a43c o )  ) )):named c29))
(assert (! (exists ((o Int)) ( type_6d16f266_8c32_4d97_be88_09194b37e9a7_Class36 ( obj_70e7b85f_5476_44de_b6d7_dbff9c68a43c o )  ) ):named c30))
(assert (! (exists ((o Int)) ( type_6d16f266_8c32_4d97_be88_09194b37e9a7_Class37 ( obj_70e7b85f_5476_44de_b6d7_dbff9c68a43c o )  ) ):named c31))
(assert (! (exists ((o Int)) (and ( type_6d16f266_8c32_4d97_be88_09194b37e9a7_Class38 ( obj_70e7b85f_5476_44de_b6d7_dbff9c68a43c o )  )  ( type_6d16f266_8c32_4d97_be88_09194b37e9a7_Class2 ( obj_70e7b85f_5476_44de_b6d7_dbff9c68a43c o )  ) )):named c32))
(assert (! (exists ((o Int)) ( type_6d16f266_8c32_4d97_be88_09194b37e9a7_Class39 ( obj_70e7b85f_5476_44de_b6d7_dbff9c68a43c o )  ) ):named c33))
(assert (! (exists ((o Int)) (and (and (and (and (and (and ( type_6d16f266_8c32_4d97_be88_09194b37e9a7_Class4 ( obj_70e7b85f_5476_44de_b6d7_dbff9c68a43c o )  )  ( type_6d16f266_8c32_4d97_be88_09194b37e9a7_Class33 ( obj_70e7b85f_5476_44de_b6d7_dbff9c68a43c o )  ) ) ( type_6d16f266_8c32_4d97_be88_09194b37e9a7_Class13 ( obj_70e7b85f_5476_44de_b6d7_dbff9c68a43c o )  ) ) ( type_6d16f266_8c32_4d97_be88_09194b37e9a7_Class16 ( obj_70e7b85f_5476_44de_b6d7_dbff9c68a43c o )  ) ) ( type_6d16f266_8c32_4d97_be88_09194b37e9a7_Class15 ( obj_70e7b85f_5476_44de_b6d7_dbff9c68a43c o )  ) ) ( type_6d16f266_8c32_4d97_be88_09194b37e9a7_Class41 ( obj_70e7b85f_5476_44de_b6d7_dbff9c68a43c o )  ) ) ( type_6d16f266_8c32_4d97_be88_09194b37e9a7_Class2 ( obj_70e7b85f_5476_44de_b6d7_dbff9c68a43c o )  ) )):named c34))
(assert (! (exists ((o Int)) (and (and (and ( type_6d16f266_8c32_4d97_be88_09194b37e9a7_Class40 ( obj_70e7b85f_5476_44de_b6d7_dbff9c68a43c o )  )  ( type_6d16f266_8c32_4d97_be88_09194b37e9a7_Class21 ( obj_70e7b85f_5476_44de_b6d7_dbff9c68a43c o )  ) ) ( type_6d16f266_8c32_4d97_be88_09194b37e9a7_Class2 ( obj_70e7b85f_5476_44de_b6d7_dbff9c68a43c o )  ) ) ( type_6d16f266_8c32_4d97_be88_09194b37e9a7_Class20 ( obj_70e7b85f_5476_44de_b6d7_dbff9c68a43c o )  ) )):named c35))
(assert (! (exists ((o Int)) (and (and (and ( type_6d16f266_8c32_4d97_be88_09194b37e9a7_Class41 ( obj_70e7b85f_5476_44de_b6d7_dbff9c68a43c o )  )  ( type_6d16f266_8c32_4d97_be88_09194b37e9a7_Class16 ( obj_70e7b85f_5476_44de_b6d7_dbff9c68a43c o )  ) ) ( type_6d16f266_8c32_4d97_be88_09194b37e9a7_Class15 ( obj_70e7b85f_5476_44de_b6d7_dbff9c68a43c o )  ) ) ( type_6d16f266_8c32_4d97_be88_09194b37e9a7_Class2 ( obj_70e7b85f_5476_44de_b6d7_dbff9c68a43c o )  ) )):named c36))
(assert (! (exists ((o Int)) (and (and (and ( type_6d16f266_8c32_4d97_be88_09194b37e9a7_Class42 ( obj_70e7b85f_5476_44de_b6d7_dbff9c68a43c o )  )  ( type_6d16f266_8c32_4d97_be88_09194b37e9a7_Class22 ( obj_70e7b85f_5476_44de_b6d7_dbff9c68a43c o )  ) ) ( type_6d16f266_8c32_4d97_be88_09194b37e9a7_Class35 ( obj_70e7b85f_5476_44de_b6d7_dbff9c68a43c o )  ) ) ( type_6d16f266_8c32_4d97_be88_09194b37e9a7_Class2 ( obj_70e7b85f_5476_44de_b6d7_dbff9c68a43c o )  ) )):named c37))
(assert (! (exists ((o Int)) ( type_6d16f266_8c32_4d97_be88_09194b37e9a7_Class43 ( obj_70e7b85f_5476_44de_b6d7_dbff9c68a43c o )  ) ):named c38))
(assert (! (exists ((o Int)) (and (and (and (and (and (and ( type_6d16f266_8c32_4d97_be88_09194b37e9a7_Class44 ( obj_70e7b85f_5476_44de_b6d7_dbff9c68a43c o )  )  ( type_6d16f266_8c32_4d97_be88_09194b37e9a7_Class33 ( obj_70e7b85f_5476_44de_b6d7_dbff9c68a43c o )  ) ) ( type_6d16f266_8c32_4d97_be88_09194b37e9a7_Class13 ( obj_70e7b85f_5476_44de_b6d7_dbff9c68a43c o )  ) ) ( type_6d16f266_8c32_4d97_be88_09194b37e9a7_Class16 ( obj_70e7b85f_5476_44de_b6d7_dbff9c68a43c o )  ) ) ( type_6d16f266_8c32_4d97_be88_09194b37e9a7_Class15 ( obj_70e7b85f_5476_44de_b6d7_dbff9c68a43c o )  ) ) ( type_6d16f266_8c32_4d97_be88_09194b37e9a7_Class41 ( obj_70e7b85f_5476_44de_b6d7_dbff9c68a43c o )  ) ) ( type_6d16f266_8c32_4d97_be88_09194b37e9a7_Class2 ( obj_70e7b85f_5476_44de_b6d7_dbff9c68a43c o )  ) )):named c39))
(assert (! (exists ((o Int)) ( type_6d16f266_8c32_4d97_be88_09194b37e9a7_Class45 ( obj_70e7b85f_5476_44de_b6d7_dbff9c68a43c o )  ) ):named c40))
(assert (! (exists ((o Int)) ( type_6d16f266_8c32_4d97_be88_09194b37e9a7_Class5 ( obj_70e7b85f_5476_44de_b6d7_dbff9c68a43c o )  ) ):named c41))
(assert (! (exists ((o Int)) (and (and (and (and ( type_6d16f266_8c32_4d97_be88_09194b37e9a7_Class6 ( obj_70e7b85f_5476_44de_b6d7_dbff9c68a43c o )  )  ( type_6d16f266_8c32_4d97_be88_09194b37e9a7_Class22 ( obj_70e7b85f_5476_44de_b6d7_dbff9c68a43c o )  ) ) ( type_6d16f266_8c32_4d97_be88_09194b37e9a7_Class35 ( obj_70e7b85f_5476_44de_b6d7_dbff9c68a43c o )  ) ) ( type_6d16f266_8c32_4d97_be88_09194b37e9a7_Class2 ( obj_70e7b85f_5476_44de_b6d7_dbff9c68a43c o )  ) ) ( type_6d16f266_8c32_4d97_be88_09194b37e9a7_Class42 ( obj_70e7b85f_5476_44de_b6d7_dbff9c68a43c o )  ) )):named c42))
(assert (! (exists ((o Int)) ( type_6d16f266_8c32_4d97_be88_09194b37e9a7_Class7 ( obj_70e7b85f_5476_44de_b6d7_dbff9c68a43c o )  ) ):named c43))
(assert (! (exists ((o Int)) (and (and (and (and (and ( type_6d16f266_8c32_4d97_be88_09194b37e9a7_Class8 ( obj_70e7b85f_5476_44de_b6d7_dbff9c68a43c o )  )  ( type_6d16f266_8c32_4d97_be88_09194b37e9a7_Class16 ( obj_70e7b85f_5476_44de_b6d7_dbff9c68a43c o )  ) ) ( type_6d16f266_8c32_4d97_be88_09194b37e9a7_Class15 ( obj_70e7b85f_5476_44de_b6d7_dbff9c68a43c o )  ) ) ( type_6d16f266_8c32_4d97_be88_09194b37e9a7_Class41 ( obj_70e7b85f_5476_44de_b6d7_dbff9c68a43c o )  ) ) ( type_6d16f266_8c32_4d97_be88_09194b37e9a7_Class10 ( obj_70e7b85f_5476_44de_b6d7_dbff9c68a43c o )  ) ) ( type_6d16f266_8c32_4d97_be88_09194b37e9a7_Class2 ( obj_70e7b85f_5476_44de_b6d7_dbff9c68a43c o )  ) )):named c44))
(assert (! (exists ((o Int)) (and (and (and (and (and (and (and ( type_6d16f266_8c32_4d97_be88_09194b37e9a7_Class9 ( obj_70e7b85f_5476_44de_b6d7_dbff9c68a43c o )  )  ( type_6d16f266_8c32_4d97_be88_09194b37e9a7_Class22 ( obj_70e7b85f_5476_44de_b6d7_dbff9c68a43c o )  ) ) ( type_6d16f266_8c32_4d97_be88_09194b37e9a7_Class35 ( obj_70e7b85f_5476_44de_b6d7_dbff9c68a43c o )  ) ) ( type_6d16f266_8c32_4d97_be88_09194b37e9a7_Class16 ( obj_70e7b85f_5476_44de_b6d7_dbff9c68a43c o )  ) ) ( type_6d16f266_8c32_4d97_be88_09194b37e9a7_Class15 ( obj_70e7b85f_5476_44de_b6d7_dbff9c68a43c o )  ) ) ( type_6d16f266_8c32_4d97_be88_09194b37e9a7_Class0 ( obj_70e7b85f_5476_44de_b6d7_dbff9c68a43c o )  ) ) ( type_6d16f266_8c32_4d97_be88_09194b37e9a7_Class41 ( obj_70e7b85f_5476_44de_b6d7_dbff9c68a43c o )  ) ) ( type_6d16f266_8c32_4d97_be88_09194b37e9a7_Class2 ( obj_70e7b85f_5476_44de_b6d7_dbff9c68a43c o )  ) )):named c45))

 ;end of formula 